8
0, 170, 328, 291, 690, 274, 330, 379
170, 0, 382, 247, 801, 392, 498, 508
328, 382, 0, 602, 441, 571, 397, 228
291, 247, 602, 0, 981, 300, 569, 668
690, 801, 441, 981, 0, 832, 504, 314
274, 392, 571, 300, 832, 0, 343, 526
330, 498, 397, 569, 504, 343, 0, 233
379, 508, 228, 668, 314, 526, 233, 0
